\ENCODING=ISO-8859-1
\Problem name: nSARP1

Maximize
 obj1: 3.45031884085668 x(0,1,0) + 3.45031884085668 x(0,1,1)
       + 7.14727414768826 x(0,2,0) + 7.14727414768826 x(0,2,1)
       + 2.86476637550246 x(0,3,0) + 2.86476637550246 x(0,3,1)
       + 2.09442051815153 x(0,4,0) + 2.09442051815153 x(0,4,1)
       + 7.25504517076723 x(0,5,0) + 7.25504517076723 x(0,5,1)
       + 6.07543360629801 x(0,6,0) + 6.07543360629801 x(0,6,1)
       + 3.56643182132418 x(0,7,0) + 3.56643182132418 x(0,7,1)
       + 8.45240305837001 x(0,8,0) + 8.45240305837001 x(0,8,1)
       + 1.8658120594675 x(0,9,0) + 1.8658120594675 x(0,9,1)
       + 6.36238953293093 x(0,10,0) + 6.36238953293093 x(0,10,1)
       + 6.79346047724192 x(0,11,0) + 6.79346047724192 x(0,11,1)
       + 0.544953477690111 x(0,12,0) + 0.544953477690111 x(0,12,1)
       + 6.86862404566168 x(0,13,0) + 6.86862404566168 x(0,13,1)
       + 4.64135539721585 x(1,3,0) + 4.64135539721585 x(1,3,1)
       + 3.83280906603976 x(1,4,0) + 3.83280906603976 x(1,4,1)
       - 0.201635195771015 x(1,5,0) - 0.201635195771015 x(1,5,1)
       - 0.673040961356916 x(1,6,0) - 0.673040961356916 x(1,6,1)
       + 5.25796670503309 x(1,7,0) + 5.25796670503309 x(1,7,1)
       - 0.770154103031526 x(1,8,0) - 0.770154103031526 x(1,8,1)
       + 4.02650180579915 x(1,9,0) + 4.02650180579915 x(1,9,1)
       - 2.38780453307586 x(1,10,0) - 2.38780453307586 x(1,10,1)
       + 0.587561333891537 x(1,11,0) + 0.587561333891537 x(1,11,1)
       + 2.85502280907699 x(1,12,0) + 2.85502280907699 x(1,12,1)
       - 2.12458538282575 x(1,13,0) - 2.12458538282575 x(1,13,1)
       - 8.41764437578875 x(2,1,0) - 8.41764437578875 x(2,1,1)
       - 9.28864362664216 x(2,3,0) - 9.28864362664216 x(2,3,1)
       - 9.20523310431908 x(2,4,0) - 9.20523310431908 x(2,4,1)
       - 6.17244318471122 x(2,5,0) - 6.17244318471122 x(2,5,1)
       - 2.85788212597581 x(2,6,0) - 2.85788212597581 x(2,6,1)
       - 8.12667644199349 x(2,7,0) - 8.12667644199349 x(2,7,1)
       - 5.00090856350324 x(2,8,0) - 5.00090856350324 x(2,8,1)
       - 10.1527260397245 x(2,9,0) - 10.1527260397245 x(2,9,1)
       - 1.1852518399547 x(2,10,0) - 1.1852518399547 x(2,10,1)
       - 3.40419878537138 x(2,11,0) - 3.40419878537138 x(2,11,1)
       - 11.2649072242244 x(2,12,0) - 11.2649072242244 x(2,12,1)
       - 0.872131899758287 x(2,13,0) - 0.872131899758287 x(2,13,1)
       - 2.6120749997479 x(3,4,0) - 2.6120749997479 x(3,4,1)
       - 6.09668979256646 x(3,5,0) - 6.09668979256646 x(3,5,1)
       - 7.47908447740631 x(3,6,0) - 7.47908447740631 x(3,6,1)
       - 1.63739958602291 x(3,7,0) - 1.63739958602291 x(3,7,1)
       - 6.85934570245297 x(3,8,0) - 6.85934570245297 x(3,8,1)
       - 1.04612532611538 x(3,9,0) - 1.04612532611538 x(3,9,1)
       - 9.11939351291675 x(3,10,0) - 9.11939351291675 x(3,10,1)
       - 6.16611187463121 x(3,11,0) - 6.16611187463121 x(3,11,1)
       - 2.48147446526617 x(3,12,0) - 2.48147446526617 x(3,12,1)
       - 8.82517774457285 x(3,13,0) - 8.82517774457285 x(3,13,1)
       - 8.20609241539041 x(4,0,0) - 8.20609241539041 x(4,0,1)
       - 1.93946472191169 x(4,1,0) - 1.93946472191169 x(4,1,1)
       - 9.20523310431908 x(4,2,0) - 9.20523310431908 x(4,2,1)
       - 2.6120749997479 x(4,3,0) - 2.6120749997479 x(4,3,1)
       - 3.04546776277471 x(5,0,0) - 3.04546776277471 x(5,0,1)
       - 5.97390898372247 x(5,1,0) - 5.97390898372247 x(5,1,1)
       - 6.17244318471122 x(5,2,0) - 6.17244318471122 x(5,2,1)
       - 6.09668979256646 x(5,3,0) - 6.09668979256646 x(5,3,1)
       - 4.22507932724393 x(6,0,0) - 4.22507932724393 x(6,0,1)
       - 6.44531474930837 x(6,1,0) - 6.44531474930837 x(6,1,1)
       - 2.85788212597581 x(6,2,0) - 2.85788212597581 x(6,2,1)
       - 7.47908447740631 x(6,3,0) - 7.47908447740631 x(6,3,1)
       - 6.73408111221776 x(7,0,0) - 6.73408111221776 x(7,0,1)
       - 0.514307082918367 x(7,1,0) - 0.514307082918367 x(7,1,1)
       - 8.12667644199349 x(7,2,0) - 8.12667644199349 x(7,2,1)
       - 1.63739958602291 x(7,3,0) - 1.63739958602291 x(7,3,1)
       - 1.84810987517193 x(8,0,0) - 1.84810987517193 x(8,0,1)
       - 6.54242789098298 x(8,1,0) - 6.54242789098298 x(8,1,1)
       - 5.00090856350324 x(8,2,0) - 5.00090856350324 x(8,2,1)
       - 6.85934570245297 x(8,3,0) - 6.85934570245297 x(8,3,1)
       - 8.43470087407443 x(9,0,0) - 8.43470087407443 x(9,0,1)
       - 1.74577198215231 x(9,1,0) - 1.74577198215231 x(9,1,1)
       - 10.1527260397245 x(9,2,0) - 10.1527260397245 x(9,2,1)
       - 1.04612532611538 x(9,3,0) - 1.04612532611538 x(9,3,1)
       - 3.93812340061101 x(10,0,0) - 3.93812340061101 x(10,0,1)
       - 8.16007832102732 x(10,1,0) - 8.16007832102732 x(10,1,1)
       - 1.1852518399547 x(10,2,0) - 1.1852518399547 x(10,2,1)
       - 9.11939351291675 x(10,3,0) - 9.11939351291675 x(10,3,1)
       - 3.50705245630002 x(11,0,0) - 3.50705245630002 x(11,0,1)
       - 5.18471245405992 x(11,1,0) - 5.18471245405992 x(11,1,1)
       - 3.40419878537138 x(11,2,0) - 3.40419878537138 x(11,2,1)
       - 6.16611187463121 x(11,3,0) - 6.16611187463121 x(11,3,1)
       - 9.75555945585183 x(12,0,0) - 9.75555945585183 x(12,0,1)
       - 2.91725097887446 x(12,1,0) - 2.91725097887446 x(12,1,1)
       - 11.2649072242244 x(12,2,0) - 11.2649072242244 x(12,2,1)
       - 2.48147446526617 x(12,3,0) - 2.48147446526617 x(12,3,1)
       - 3.43188888788026 x(13,0,0) - 3.43188888788026 x(13,0,1)
       - 7.8968591707772 x(13,1,0) - 7.8968591707772 x(13,1,1)
       - 0.872131899758287 x(13,2,0) - 0.872131899758287 x(13,2,1)
       - 8.82517774457285 x(13,3,0) - 8.82517774457285 x(13,3,1)
       - 3.24402119320328 x(14,0,0) - 7.55418536008139 x(14,1,0)
       - 9.9273383998387 x(15,0,1) - 3.56526170635537 x(15,1,1)
Subject To
 Constraint1_0:     x(0,2,0) + x(0,2,1)  = 1
 Constraint1_1:     x(1,3,0) + x(1,3,1)  = 1
 Constraint2_4:     x(0,4,0) + x(0,4,1) + x(1,4,0) + x(1,4,1) + x(2,4,0)
                    + x(2,4,1) + x(3,4,0) + x(3,4,1) + x(4,0,0) + x(4,0,1)
                    + x(4,1,0) + x(4,1,1) + x(4,2,0) + x(4,2,1) + x(4,3,0)
                    + x(4,3,1)  = 0
 Constraint2_5:     x(0,5,0) + x(0,5,1) + x(1,5,0) + x(1,5,1) + x(2,5,0)
                    + x(2,5,1) + x(3,5,0) + x(3,5,1) + x(5,0,0) + x(5,0,1)
                    + x(5,1,0) + x(5,1,1) + x(5,2,0) + x(5,2,1) + x(5,3,0)
                    + x(5,3,1)  = 0
 Constraint2_6:     x(0,6,0) + x(0,6,1) + x(1,6,0) + x(1,6,1) + x(2,6,0)
                    + x(2,6,1) + x(3,6,0) + x(3,6,1) + x(6,0,0) + x(6,0,1)
                    + x(6,1,0) + x(6,1,1) + x(6,2,0) + x(6,2,1) + x(6,3,0)
                    + x(6,3,1)  = 0
 Constraint2_7:     x(0,7,0) + x(0,7,1) + x(1,7,0) + x(1,7,1) + x(2,7,0)
                    + x(2,7,1) + x(3,7,0) + x(3,7,1) + x(7,0,0) + x(7,0,1)
                    + x(7,1,0) + x(7,1,1) + x(7,2,0) + x(7,2,1) + x(7,3,0)
                    + x(7,3,1)  = 0
 Constraint2_8:     x(0,8,0) + x(0,8,1) + x(1,8,0) + x(1,8,1) + x(2,8,0)
                    + x(2,8,1) + x(3,8,0) + x(3,8,1) + x(8,0,0) + x(8,0,1)
                    + x(8,1,0) + x(8,1,1) + x(8,2,0) + x(8,2,1) + x(8,3,0)
                    + x(8,3,1)  = 0
 Constraint2_9:     x(0,9,0) + x(0,9,1) + x(1,9,0) + x(1,9,1) + x(2,9,0)
                    + x(2,9,1) + x(3,9,0) + x(3,9,1) + x(9,0,0) + x(9,0,1)
                    + x(9,1,0) + x(9,1,1) + x(9,2,0) + x(9,2,1) + x(9,3,0)
                    + x(9,3,1)  = 0
 Constraint2_10:    x(0,10,0) + x(0,10,1) + x(1,10,0) + x(1,10,1) + x(2,10,0)
                    + x(2,10,1) + x(3,10,0) + x(3,10,1) + x(10,0,0) + x(10,0,1)
                    + x(10,1,0) + x(10,1,1) + x(10,2,0) + x(10,2,1) + x(10,3,0)
                    + x(10,3,1)  = 0
 Constraint2_11:    x(0,11,0) + x(0,11,1) + x(1,11,0) + x(1,11,1) + x(2,11,0)
                    + x(2,11,1) + x(3,11,0) + x(3,11,1) + x(11,0,0) + x(11,0,1)
                    + x(11,1,0) + x(11,1,1) + x(11,2,0) + x(11,2,1) + x(11,3,0)
                    + x(11,3,1)  = 0
 Constraint2_12:    x(0,12,0) + x(0,12,1) + x(1,12,0) + x(1,12,1) + x(2,12,0)
                    + x(2,12,1) + x(3,12,0) + x(3,12,1) + x(12,0,0) + x(12,0,1)
                    + x(12,1,0) + x(12,1,1) + x(12,2,0) + x(12,2,1) + x(12,3,0)
                    + x(12,3,1)  = 0
 Constraint2_13:    x(0,13,0) + x(0,13,1) + x(1,13,0) + x(1,13,1) + x(2,13,0)
                    + x(2,13,1) + x(3,13,0) + x(3,13,1) + x(13,0,0) + x(13,0,1)
                    + x(13,1,0) + x(13,1,1) + x(13,2,0) + x(13,2,1) + x(13,3,0)
                    + x(13,3,1)  = 0
 Constraint3_0_0:   x(0,1,0) + x(0,2,0) + x(0,3,0) + x(0,4,0) + x(0,5,0)
                    + x(0,6,0) + x(0,7,0) + x(0,8,0) + x(0,9,0) + x(0,10,0)
                    + x(0,11,0) + x(0,12,0) + x(0,13,0) - x(4,0,0) - x(5,0,0)
                    - x(6,0,0) - x(7,0,0) - x(8,0,0) - x(9,0,0) - x(10,0,0)
                    - x(11,0,0) - x(12,0,0) - x(13,0,0) - x(14,0,0)  = 0
 Constraint3_0_1:   x(0,1,1) + x(0,2,1) + x(0,3,1) + x(0,4,1) + x(0,5,1)
                    + x(0,6,1) + x(0,7,1) + x(0,8,1) + x(0,9,1) + x(0,10,1)
                    + x(0,11,1) + x(0,12,1) + x(0,13,1) - x(4,0,1) - x(5,0,1)
                    - x(6,0,1) - x(7,0,1) - x(8,0,1) - x(9,0,1) - x(10,0,1)
                    - x(11,0,1) - x(12,0,1) - x(13,0,1) - x(15,0,1)  = 0
 Constraint3_1_0:   - x(0,1,0) + x(1,3,0) + x(1,4,0) + x(1,5,0) + x(1,6,0)
                    + x(1,7,0) + x(1,8,0) + x(1,9,0) + x(1,10,0) + x(1,11,0)
                    + x(1,12,0) + x(1,13,0) - x(2,1,0) - x(4,1,0) - x(5,1,0)
                    - x(6,1,0) - x(7,1,0) - x(8,1,0) - x(9,1,0) - x(10,1,0)
                    - x(11,1,0) - x(12,1,0) - x(13,1,0) - x(14,1,0)  = 0
 Constraint3_1_1:   - x(0,1,1) + x(1,3,1) + x(1,4,1) + x(1,5,1) + x(1,6,1)
                    + x(1,7,1) + x(1,8,1) + x(1,9,1) + x(1,10,1) + x(1,11,1)
                    + x(1,12,1) + x(1,13,1) - x(2,1,1) - x(4,1,1) - x(5,1,1)
                    - x(6,1,1) - x(7,1,1) - x(8,1,1) - x(9,1,1) - x(10,1,1)
                    - x(11,1,1) - x(12,1,1) - x(13,1,1) - x(15,1,1)  = 0
 Constraint3_2_0:   - x(0,2,0) + x(2,1,0) + x(2,3,0) + x(2,4,0) + x(2,5,0)
                    + x(2,6,0) + x(2,7,0) + x(2,8,0) + x(2,9,0) + x(2,10,0)
                    + x(2,11,0) + x(2,12,0) + x(2,13,0) + x(2,16,0) - x(4,2,0)
                    - x(5,2,0) - x(6,2,0) - x(7,2,0) - x(8,2,0) - x(9,2,0)
                    - x(10,2,0) - x(11,2,0) - x(12,2,0) - x(13,2,0)  = 0
 Constraint3_2_1:   - x(0,2,1) + x(2,1,1) + x(2,3,1) + x(2,4,1) + x(2,5,1)
                    + x(2,6,1) + x(2,7,1) + x(2,8,1) + x(2,9,1) + x(2,10,1)
                    + x(2,11,1) + x(2,12,1) + x(2,13,1) + x(2,17,1) - x(4,2,1)
                    - x(5,2,1) - x(6,2,1) - x(7,2,1) - x(8,2,1) - x(9,2,1)
                    - x(10,2,1) - x(11,2,1) - x(12,2,1) - x(13,2,1)  = 0
 Constraint3_3_0:   - x(0,3,0) - x(1,3,0) - x(2,3,0) + x(3,4,0) + x(3,5,0)
                    + x(3,6,0) + x(3,7,0) + x(3,8,0) + x(3,9,0) + x(3,10,0)
                    + x(3,11,0) + x(3,12,0) + x(3,13,0) + x(3,16,0) - x(4,3,0)
                    - x(5,3,0) - x(6,3,0) - x(7,3,0) - x(8,3,0) - x(9,3,0)
                    - x(10,3,0) - x(11,3,0) - x(12,3,0) - x(13,3,0)  = 0
 Constraint3_3_1:   - x(0,3,1) - x(1,3,1) - x(2,3,1) + x(3,4,1) + x(3,5,1)
                    + x(3,6,1) + x(3,7,1) + x(3,8,1) + x(3,9,1) + x(3,10,1)
                    + x(3,11,1) + x(3,12,1) + x(3,13,1) + x(3,17,1) - x(4,3,1)
                    - x(5,3,1) - x(6,3,1) - x(7,3,1) - x(8,3,1) - x(9,3,1)
                    - x(10,3,1) - x(11,3,1) - x(12,3,1) - x(13,3,1)  = 0
 Constraint3_4_0:   - x(0,4,0) - x(1,4,0) - x(2,4,0) - x(3,4,0) + x(4,0,0)
                    + x(4,1,0) + x(4,2,0) + x(4,3,0)  = 0
 Constraint3_4_1:   - x(0,4,1) - x(1,4,1) - x(2,4,1) - x(3,4,1) + x(4,0,1)
                    + x(4,1,1) + x(4,2,1) + x(4,3,1)  = 0
 Constraint3_5_0:   - x(0,5,0) - x(1,5,0) - x(2,5,0) - x(3,5,0) + x(5,0,0)
                    + x(5,1,0) + x(5,2,0) + x(5,3,0)  = 0
 Constraint3_5_1:   - x(0,5,1) - x(1,5,1) - x(2,5,1) - x(3,5,1) + x(5,0,1)
                    + x(5,1,1) + x(5,2,1) + x(5,3,1)  = 0
 Constraint3_6_0:   - x(0,6,0) - x(1,6,0) - x(2,6,0) - x(3,6,0) + x(6,0,0)
                    + x(6,1,0) + x(6,2,0) + x(6,3,0)  = 0
 Constraint3_6_1:   - x(0,6,1) - x(1,6,1) - x(2,6,1) - x(3,6,1) + x(6,0,1)
                    + x(6,1,1) + x(6,2,1) + x(6,3,1)  = 0
 Constraint3_7_0:   - x(0,7,0) - x(1,7,0) - x(2,7,0) - x(3,7,0) + x(7,0,0)
                    + x(7,1,0) + x(7,2,0) + x(7,3,0)  = 0
 Constraint3_7_1:   - x(0,7,1) - x(1,7,1) - x(2,7,1) - x(3,7,1) + x(7,0,1)
                    + x(7,1,1) + x(7,2,1) + x(7,3,1)  = 0
 Constraint3_8_0:   - x(0,8,0) - x(1,8,0) - x(2,8,0) - x(3,8,0) + x(8,0,0)
                    + x(8,1,0) + x(8,2,0) + x(8,3,0)  = 0
 Constraint3_8_1:   - x(0,8,1) - x(1,8,1) - x(2,8,1) - x(3,8,1) + x(8,0,1)
                    + x(8,1,1) + x(8,2,1) + x(8,3,1)  = 0
 Constraint3_9_0:   - x(0,9,0) - x(1,9,0) - x(2,9,0) - x(3,9,0) + x(9,0,0)
                    + x(9,1,0) + x(9,2,0) + x(9,3,0)  = 0
 Constraint3_9_1:   - x(0,9,1) - x(1,9,1) - x(2,9,1) - x(3,9,1) + x(9,0,1)
                    + x(9,1,1) + x(9,2,1) + x(9,3,1)  = 0
 Constraint3_10_0:  - x(0,10,0) - x(1,10,0) - x(2,10,0) - x(3,10,0) + x(10,0,0)
                    + x(10,1,0) + x(10,2,0) + x(10,3,0)  = 0
 Constraint3_10_1:  - x(0,10,1) - x(1,10,1) - x(2,10,1) - x(3,10,1) + x(10,0,1)
                    + x(10,1,1) + x(10,2,1) + x(10,3,1)  = 0
 Constraint3_11_0:  - x(0,11,0) - x(1,11,0) - x(2,11,0) - x(3,11,0) + x(11,0,0)
                    + x(11,1,0) + x(11,2,0) + x(11,3,0)  = 0
 Constraint3_11_1:  - x(0,11,1) - x(1,11,1) - x(2,11,1) - x(3,11,1) + x(11,0,1)
                    + x(11,1,1) + x(11,2,1) + x(11,3,1)  = 0
 Constraint3_12_0:  - x(0,12,0) - x(1,12,0) - x(2,12,0) - x(3,12,0) + x(12,0,0)
                    + x(12,1,0) + x(12,2,0) + x(12,3,0)  = 0
 Constraint3_12_1:  - x(0,12,1) - x(1,12,1) - x(2,12,1) - x(3,12,1) + x(12,0,1)
                    + x(12,1,1) + x(12,2,1) + x(12,3,1)  = 0
 Constraint3_13_0:  - x(0,13,0) - x(1,13,0) - x(2,13,0) - x(3,13,0) + x(13,0,0)
                    + x(13,1,0) + x(13,2,0) + x(13,3,0)  = 0
 Constraint3_13_1:  - x(0,13,1) - x(1,13,1) - x(2,13,1) - x(3,13,1) + x(13,0,1)
                    + x(13,1,1) + x(13,2,1) + x(13,3,1)  = 0
 Constraint4_0:     x(14,0,0) + x(14,1,0) + x(14,16,0)  = 1
 Constraint4_1:     x(15,0,1) + x(15,1,1) + x(15,17,1)  = 1
 Constraint5_0:     x(2,16,0) + x(3,16,0) + x(14,16,0)  = 1
 Constraint5_1:     x(2,17,1) + x(3,17,1) + x(15,17,1)  = 1
 Constraint6_14_16: 24 x(14,16,0) + b(14) - b(16) <= 24
 Constraint6_14_0:  24 x(14,0,0) - b(0) + b(14) <= 23.8279946345067
 Constraint6_14_1:  24 x(14,1,0) - b(1) + b(14) <= 23.5994599490943
 Constraint6_15_17: 24 x(15,17,1) + b(15) - b(17) <= 24
 Constraint6_15_0:  24 x(15,0,1) - b(0) + b(15) <= 23.4736299894041
 Constraint6_15_1:  24 x(15,1,1) - b(1) + b(15) <= 23.8109617334912
 Constraint6_0_1:   24 x(0,1,0) + 24 x(0,1,1) + b(0) - b(1) <= 23.5534538303631
 Constraint6_0_2:   24 x(0,2,0) + 24 x(0,2,1) + b(0) - b(2) <= 23.7494747904284
 Constraint6_0_3:   24 x(0,3,0) + 24 x(0,3,1) + b(0) - b(3) <= 23.5224065098247
 Constraint6_0_4:   24 x(0,4,0) + 24 x(0,4,1) + b(0) - b(4) <= 23.4815610242812
 Constraint6_0_5:   24 x(0,5,0) + 24 x(0,5,1) + b(0) - b(5) <= 23.7551890546426
 Constraint6_0_6:   24 x(0,6,0) + 24 x(0,6,1) + b(0) - b(6) <= 23.6926433725392
 Constraint6_0_7:   24 x(0,7,0) + 24 x(0,7,1) + b(0) - b(7) <= 23.5596104040888
 Constraint6_0_8:   24 x(0,8,0) + 24 x(0,8,1) + b(0) - b(8) <= 23.8186756870711
 Constraint6_0_9:   24 x(0,9,0) + 24 x(0,9,1) + b(0) - b(9) <= 23.4694396850084
 Constraint6_0_10:  24 x(0,10,0) + 24 x(0,10,1) + b(0) - b(10)
                    <= 23.7078584269736
 Constraint6_0_11:  24 x(0,11,0) + 24 x(0,11,1) + b(0) - b(11)
                    <= 23.7307147866932
 Constraint6_0_12:  24 x(0,12,0) + 24 x(0,12,1) + b(0) - b(12)
                    <= 23.399404765508
 Constraint6_0_13:  24 x(0,13,0) + 24 x(0,13,1) + b(0) - b(13)
                    <= 23.7347001296635
 Constraint6_1_3:   24 x(1,3,0) + 24 x(1,3,1) + b(1) - b(3) <= 23.8567028071367
 Constraint6_1_4:   24 x(1,4,0) + 24 x(1,4,1) + b(1) - b(4) <= 23.8138318457806
 Constraint6_1_5:   24 x(1,5,0) + 24 x(1,5,1) + b(1) - b(5) <= 23.5999164554407
 Constraint6_1_6:   24 x(1,6,0) + 24 x(1,6,1) + b(1) - b(6) <= 23.5749214519631
 Constraint6_1_7:   24 x(1,7,0) + 24 x(1,7,1) + b(1) - b(7) <= 23.8893969379859
 Constraint6_1_8:   24 x(1,8,0) + 24 x(1,8,1) + b(1) - b(8) <= 23.5697722928075
 Constraint6_1_9:   24 x(1,9,0) + 24 x(1,9,1) + b(1) - b(9) <= 23.8241018743998
 Constraint6_1_10:  24 x(1,10,0) + 24 x(1,10,1) + b(1) - b(10)
                    <= 23.4840007959865
 Constraint6_1_11:  24 x(1,11,0) + 24 x(1,11,1) + b(1) - b(11)
                    <= 23.641761446409
 Constraint6_1_12:  24 x(1,12,0) + 24 x(1,12,1) + b(1) - b(12)
                    <= 23.7619873994941
 Constraint6_1_13:  24 x(1,13,0) + 24 x(1,13,1) + b(1) - b(13)
                    <= 23.49795727267
 Constraint6_2_1:   24 x(2,1,0) + 24 x(2,1,1) - b(1) + b(2) <= 23.4703440592547
 Constraint6_2_3:   24 x(2,3,0) + 24 x(2,3,1) + b(2) - b(3) <= 23.4241617023696
 Constraint6_2_16:  24 x(2,16,0) + b(2) - b(16) <= 23.9166666666667
 Constraint6_2_17:  24 x(2,17,1) + b(2) - b(17) <= 23.9166666666667
 Constraint6_2_4:   24 x(2,4,0) + 24 x(2,4,1) + b(2) - b(4) <= 23.4285843175511
 Constraint6_2_5:   24 x(2,5,0) + 24 x(2,5,1) + b(2) - b(5) <= 23.58938972156
 Constraint6_2_6:   24 x(2,6,0) + 24 x(2,6,1) + b(2) - b(6) <= 23.7651352708037
 Constraint6_2_7:   24 x(2,7,0) + 24 x(2,7,1) + b(2) - b(7) <= 23.4857718394136
 Constraint6_2_8:   24 x(2,8,0) + 24 x(2,8,1) + b(2) - b(8) <= 23.6515071458022
 Constraint6_2_9:   24 x(2,9,0) + 24 x(2,9,1) + b(2) - b(9) <= 23.3783460919199
 Constraint6_2_10:  24 x(2,10,0) + 24 x(2,10,1) + b(2) - b(10)
                    <= 23.8538219243573
 Constraint6_2_11:  24 x(2,11,0) + 24 x(2,11,1) + b(2) - b(11)
                    <= 23.7361683217371
 Constraint6_2_12:  24 x(2,12,0) + 24 x(2,12,1) + b(2) - b(12)
                    <= 23.3193757215858
 Constraint6_2_13:  24 x(2,13,0) + 24 x(2,13,1) + b(2) - b(13)
                    <= 23.8704242541662
 Constraint6_3_16:  24 x(3,16,0) + b(3) - b(16) <= 23.9166666666667
 Constraint6_3_17:  24 x(3,17,1) + b(3) - b(17) <= 23.9166666666667
 Constraint6_3_4:   24 x(3,4,0) + 24 x(3,4,1) + b(3) - b(4) <= 23.7781685224595
 Constraint6_3_5:   24 x(3,5,0) + 24 x(3,5,1) + b(3) - b(5) <= 23.5934063383227
 Constraint6_3_6:   24 x(3,6,0) + 24 x(3,6,1) + b(3) - b(6) <= 23.5201086349908
 Constraint6_3_7:   24 x(3,7,0) + 24 x(3,7,1) + b(3) - b(7) <= 23.8298480247779
 Constraint6_3_8:   24 x(3,8,0) + 24 x(3,8,1) + b(3) - b(8) <= 23.552968591245
 Constraint6_3_9:   24 x(3,9,0) + 24 x(3,9,1) + b(3) - b(9) <= 23.8611987278482
 Constraint6_3_10:  24 x(3,10,0) + 24 x(3,10,1) + b(3) - b(10)
                    <= 23.4331357274876
 Constraint6_3_11:  24 x(3,11,0) + 24 x(3,11,1) + b(3) - b(11)
                    <= 23.5897254219884
 Constraint6_3_12:  24 x(3,12,0) + 24 x(3,12,1) + b(3) - b(12)
                    <= 23.7850932591764
 Constraint6_3_13:  24 x(3,13,0) + 24 x(3,13,1) + b(3) - b(13)
                    <= 23.4487357152047
 Constraint6_4_0:   24 x(4,0,0) + 24 x(4,0,1) - b(0) + b(4) <= 23.4815610242812
 Constraint6_4_1:   24 x(4,1,0) + 24 x(4,1,1) - b(1) + b(4) <= 23.8138318457806
 Constraint6_4_2:   24 x(4,2,0) + 24 x(4,2,1) - b(2) + b(4) <= 23.4285843175511
 Constraint6_4_3:   24 x(4,3,0) + 24 x(4,3,1) - b(3) + b(4) <= 23.7781685224595
 Constraint6_5_0:   24 x(5,0,0) + 24 x(5,0,1) - b(0) + b(5) <= 23.7551890546426
 Constraint6_5_1:   24 x(5,1,0) + 24 x(5,1,1) - b(1) + b(5) <= 23.5999164554407
 Constraint6_5_2:   24 x(5,2,0) + 24 x(5,2,1) - b(2) + b(5) <= 23.58938972156
 Constraint6_5_3:   24 x(5,3,0) + 24 x(5,3,1) - b(3) + b(5) <= 23.5934063383227
 Constraint6_6_0:   24 x(6,0,0) + 24 x(6,0,1) - b(0) + b(6) <= 23.6926433725392
 Constraint6_6_1:   24 x(6,1,0) + 24 x(6,1,1) - b(1) + b(6) <= 23.5749214519631
 Constraint6_6_2:   24 x(6,2,0) + 24 x(6,2,1) - b(2) + b(6) <= 23.7651352708037
 Constraint6_6_3:   24 x(6,3,0) + 24 x(6,3,1) - b(3) + b(6) <= 23.5201086349908
 Constraint6_7_0:   24 x(7,0,0) + 24 x(7,0,1) - b(0) + b(7) <= 23.5596104040888
 Constraint6_7_1:   24 x(7,1,0) + 24 x(7,1,1) - b(1) + b(7) <= 23.8893969379859
 Constraint6_7_2:   24 x(7,2,0) + 24 x(7,2,1) - b(2) + b(7) <= 23.4857718394136
 Constraint6_7_3:   24 x(7,3,0) + 24 x(7,3,1) - b(3) + b(7) <= 23.8298480247779
 Constraint6_8_0:   24 x(8,0,0) + 24 x(8,0,1) - b(0) + b(8) <= 23.8186756870711
 Constraint6_8_1:   24 x(8,1,0) + 24 x(8,1,1) - b(1) + b(8) <= 23.5697722928075
 Constraint6_8_2:   24 x(8,2,0) + 24 x(8,2,1) - b(2) + b(8) <= 23.6515071458022
 Constraint6_8_3:   24 x(8,3,0) + 24 x(8,3,1) - b(3) + b(8) <= 23.552968591245
 Constraint6_9_0:   24 x(9,0,0) + 24 x(9,0,1) - b(0) + b(9) <= 23.4694396850084
 Constraint6_9_1:   24 x(9,1,0) + 24 x(9,1,1) - b(1) + b(9) <= 23.8241018743998
 Constraint6_9_2:   24 x(9,2,0) + 24 x(9,2,1) - b(2) + b(9) <= 23.3783460919199
 Constraint6_9_3:   24 x(9,3,0) + 24 x(9,3,1) - b(3) + b(9) <= 23.8611987278482
 Constraint6_10_0:  24 x(10,0,0) + 24 x(10,0,1) - b(0) + b(10)
                    <= 23.7078584269736
 Constraint6_10_1:  24 x(10,1,0) + 24 x(10,1,1) - b(1) + b(10)
                    <= 23.4840007959865
 Constraint6_10_2:  24 x(10,2,0) + 24 x(10,2,1) - b(2) + b(10)
                    <= 23.8538219243573
 Constraint6_10_3:  24 x(10,3,0) + 24 x(10,3,1) - b(3) + b(10)
                    <= 23.4331357274876
 Constraint6_11_0:  24 x(11,0,0) + 24 x(11,0,1) - b(0) + b(11)
                    <= 23.7307147866932
 Constraint6_11_1:  24 x(11,1,0) + 24 x(11,1,1) - b(1) + b(11)
                    <= 23.641761446409
 Constraint6_11_2:  24 x(11,2,0) + 24 x(11,2,1) - b(2) + b(11)
                    <= 23.7361683217371
 Constraint6_11_3:  24 x(11,3,0) + 24 x(11,3,1) - b(3) + b(11)
                    <= 23.5897254219884
 Constraint6_12_0:  24 x(12,0,0) + 24 x(12,0,1) - b(0) + b(12)
                    <= 23.399404765508
 Constraint6_12_1:  24 x(12,1,0) + 24 x(12,1,1) - b(1) + b(12)
                    <= 23.7619873994941
 Constraint6_12_2:  24 x(12,2,0) + 24 x(12,2,1) - b(2) + b(12)
                    <= 23.3193757215858
 Constraint6_12_3:  24 x(12,3,0) + 24 x(12,3,1) - b(3) + b(12)
                    <= 23.7850932591764
 Constraint6_13_0:  24 x(13,0,0) + 24 x(13,0,1) - b(0) + b(13)
                    <= 23.7347001296635
 Constraint6_13_1:  24 x(13,1,0) + 24 x(13,1,1) - b(1) + b(13)
                    <= 23.49795727267
 Constraint6_13_2:  24 x(13,2,0) + 24 x(13,2,1) - b(2) + b(13)
                    <= 23.8704242541662
 Constraint6_13_3:  24 x(13,3,0) + 24 x(13,3,1) - b(3) + b(13)
                    <= 23.4487357152047
 Constraint7_0:     b(0) <= 1.81666666666667
 Constraint8_0:     b(0) >= 1.81666666666667
 Constraint7_1:     b(1) <= 6.46666666666667
 Constraint8_1:     b(1) >= 6.46666666666667
 Constraint7_2:     b(2) <= 2.06719195779532
 Constraint8_2:     b(2) >= 2.06719195779532
 Constraint7_3:     b(3) <= 6.60996388878067
 Constraint8_3:     b(3) >= 6.60996388878067
 Constraint7_4:     b(4) <= 24
 Constraint8_4:     b(4) >= 0
 Constraint7_5:     b(5) <= 24
 Constraint8_5:     b(5) >= 0
 Constraint7_6:     b(6) <= 24
 Constraint8_6:     b(6) >= 0
 Constraint7_7:     b(7) <= 24
 Constraint8_7:     b(7) >= 0
 Constraint7_8:     b(8) <= 24
 Constraint8_8:     b(8) >= 0
 Constraint7_9:     b(9) <= 24
 Constraint8_9:     b(9) >= 0
 Constraint7_10:    b(10) <= 24
 Constraint8_10:    b(10) >= 0
 Constraint7_11:    b(11) <= 24
 Constraint8_11:    b(11) >= 0
 Constraint7_12:    b(12) <= 24
 Constraint8_12:    b(12) >= 0
 Constraint7_13:    b(13) <= 24
 Constraint8_13:    b(13) >= 0
 Constraint7_14:    b(14) <= 24
 Constraint8_14:    b(14) >= 0
 Constraint7_15:    b(15) <= 24
 Constraint8_15:    b(15) >= 0
 Constraint7_16:    b(16) <= 24
 Constraint8_16:    b(16) >= 0
 Constraint7_17:    b(17) <= 24
 Constraint8_17:    b(17) >= 0
 Constraint9_14:    - b(14) + b(16) <= 8
 Constraint9_15:    - b(15) + b(17) <= 8
 Constraint10_0:    x(0,1,0) + x(0,1,1) + x(0,2,0) + x(0,2,1) + x(0,3,0)
                    + x(0,3,1) + x(0,4,0) + x(0,4,1) + x(0,5,0) + x(0,5,1)
                    + x(0,6,0) + x(0,6,1) + x(0,7,0) + x(0,7,1) + x(0,8,0)
                    + x(0,8,1) + x(0,9,0) + x(0,9,1) + x(0,10,0) + x(0,10,1)
                    + x(0,11,0) + x(0,11,1) + x(0,12,0) + x(0,12,1) + x(0,13,0)
                    + x(0,13,1)  = 1
 Constraint10_1:    x(1,3,0) + x(1,3,1) + x(1,4,0) + x(1,4,1) + x(1,5,0)
                    + x(1,5,1) + x(1,6,0) + x(1,6,1) + x(1,7,0) + x(1,7,1)
                    + x(1,8,0) + x(1,8,1) + x(1,9,0) + x(1,9,1) + x(1,10,0)
                    + x(1,10,1) + x(1,11,0) + x(1,11,1) + x(1,12,0) + x(1,12,1)
                    + x(1,13,0) + x(1,13,1)  = 1
Bounds
 0 <= x(0,1,0) <= 1
 0 <= x(0,1,1) <= 1
 0 <= x(0,2,0) <= 1
 0 <= x(0,2,1) <= 1
 0 <= x(0,3,0) <= 1
 0 <= x(0,3,1) <= 1
 0 <= x(0,4,0) <= 1
 0 <= x(0,4,1) <= 1
 0 <= x(0,5,0) <= 1
 0 <= x(0,5,1) <= 1
 0 <= x(0,6,0) <= 1
 0 <= x(0,6,1) <= 1
 0 <= x(0,7,0) <= 1
 0 <= x(0,7,1) <= 1
 0 <= x(0,8,0) <= 1
 0 <= x(0,8,1) <= 1
 0 <= x(0,9,0) <= 1
 0 <= x(0,9,1) <= 1
 0 <= x(0,10,0) <= 1
 0 <= x(0,10,1) <= 1
 0 <= x(0,11,0) <= 1
 0 <= x(0,11,1) <= 1
 0 <= x(0,12,0) <= 1
 0 <= x(0,12,1) <= 1
 0 <= x(0,13,0) <= 1
 0 <= x(0,13,1) <= 1
 0 <= x(1,3,0) <= 1
 0 <= x(1,3,1) <= 1
 0 <= x(1,4,0) <= 1
 0 <= x(1,4,1) <= 1
 0 <= x(1,5,0) <= 1
 0 <= x(1,5,1) <= 1
 0 <= x(1,6,0) <= 1
 0 <= x(1,6,1) <= 1
 0 <= x(1,7,0) <= 1
 0 <= x(1,7,1) <= 1
 0 <= x(1,8,0) <= 1
 0 <= x(1,8,1) <= 1
 0 <= x(1,9,0) <= 1
 0 <= x(1,9,1) <= 1
 0 <= x(1,10,0) <= 1
 0 <= x(1,10,1) <= 1
 0 <= x(1,11,0) <= 1
 0 <= x(1,11,1) <= 1
 0 <= x(1,12,0) <= 1
 0 <= x(1,12,1) <= 1
 0 <= x(1,13,0) <= 1
 0 <= x(1,13,1) <= 1
 0 <= x(2,1,0) <= 1
 0 <= x(2,1,1) <= 1
 0 <= x(2,3,0) <= 1
 0 <= x(2,3,1) <= 1
 0 <= x(2,4,0) <= 1
 0 <= x(2,4,1) <= 1
 0 <= x(2,5,0) <= 1
 0 <= x(2,5,1) <= 1
 0 <= x(2,6,0) <= 1
 0 <= x(2,6,1) <= 1
 0 <= x(2,7,0) <= 1
 0 <= x(2,7,1) <= 1
 0 <= x(2,8,0) <= 1
 0 <= x(2,8,1) <= 1
 0 <= x(2,9,0) <= 1
 0 <= x(2,9,1) <= 1
 0 <= x(2,10,0) <= 1
 0 <= x(2,10,1) <= 1
 0 <= x(2,11,0) <= 1
 0 <= x(2,11,1) <= 1
 0 <= x(2,12,0) <= 1
 0 <= x(2,12,1) <= 1
 0 <= x(2,13,0) <= 1
 0 <= x(2,13,1) <= 1
 0 <= x(2,16,0) <= 1
 0 <= x(2,17,1) <= 1
 0 <= x(3,4,0) <= 1
 0 <= x(3,4,1) <= 1
 0 <= x(3,5,0) <= 1
 0 <= x(3,5,1) <= 1
 0 <= x(3,6,0) <= 1
 0 <= x(3,6,1) <= 1
 0 <= x(3,7,0) <= 1
 0 <= x(3,7,1) <= 1
 0 <= x(3,8,0) <= 1
 0 <= x(3,8,1) <= 1
 0 <= x(3,9,0) <= 1
 0 <= x(3,9,1) <= 1
 0 <= x(3,10,0) <= 1
 0 <= x(3,10,1) <= 1
 0 <= x(3,11,0) <= 1
 0 <= x(3,11,1) <= 1
 0 <= x(3,12,0) <= 1
 0 <= x(3,12,1) <= 1
 0 <= x(3,13,0) <= 1
 0 <= x(3,13,1) <= 1
 0 <= x(3,16,0) <= 1
 0 <= x(3,17,1) <= 1
 0 <= x(4,0,0) <= 1
 0 <= x(4,0,1) <= 1
 0 <= x(4,1,0) <= 1
 0 <= x(4,1,1) <= 1
 0 <= x(4,2,0) <= 1
 0 <= x(4,2,1) <= 1
 0 <= x(4,3,0) <= 1
 0 <= x(4,3,1) <= 1
 0 <= x(5,0,0) <= 1
 0 <= x(5,0,1) <= 1
 0 <= x(5,1,0) <= 1
 0 <= x(5,1,1) <= 1
 0 <= x(5,2,0) <= 1
 0 <= x(5,2,1) <= 1
 0 <= x(5,3,0) <= 1
 0 <= x(5,3,1) <= 1
 0 <= x(6,0,0) <= 1
 0 <= x(6,0,1) <= 1
 0 <= x(6,1,0) <= 1
 0 <= x(6,1,1) <= 1
 0 <= x(6,2,0) <= 1
 0 <= x(6,2,1) <= 1
 0 <= x(6,3,0) <= 1
 0 <= x(6,3,1) <= 1
 0 <= x(7,0,0) <= 1
 0 <= x(7,0,1) <= 1
 0 <= x(7,1,0) <= 1
 0 <= x(7,1,1) <= 1
 0 <= x(7,2,0) <= 1
 0 <= x(7,2,1) <= 1
 0 <= x(7,3,0) <= 1
 0 <= x(7,3,1) <= 1
 0 <= x(8,0,0) <= 1
 0 <= x(8,0,1) <= 1
 0 <= x(8,1,0) <= 1
 0 <= x(8,1,1) <= 1
 0 <= x(8,2,0) <= 1
 0 <= x(8,2,1) <= 1
 0 <= x(8,3,0) <= 1
 0 <= x(8,3,1) <= 1
 0 <= x(9,0,0) <= 1
 0 <= x(9,0,1) <= 1
 0 <= x(9,1,0) <= 1
 0 <= x(9,1,1) <= 1
 0 <= x(9,2,0) <= 1
 0 <= x(9,2,1) <= 1
 0 <= x(9,3,0) <= 1
 0 <= x(9,3,1) <= 1
 0 <= x(10,0,0) <= 1
 0 <= x(10,0,1) <= 1
 0 <= x(10,1,0) <= 1
 0 <= x(10,1,1) <= 1
 0 <= x(10,2,0) <= 1
 0 <= x(10,2,1) <= 1
 0 <= x(10,3,0) <= 1
 0 <= x(10,3,1) <= 1
 0 <= x(11,0,0) <= 1
 0 <= x(11,0,1) <= 1
 0 <= x(11,1,0) <= 1
 0 <= x(11,1,1) <= 1
 0 <= x(11,2,0) <= 1
 0 <= x(11,2,1) <= 1
 0 <= x(11,3,0) <= 1
 0 <= x(11,3,1) <= 1
 0 <= x(12,0,0) <= 1
 0 <= x(12,0,1) <= 1
 0 <= x(12,1,0) <= 1
 0 <= x(12,1,1) <= 1
 0 <= x(12,2,0) <= 1
 0 <= x(12,2,1) <= 1
 0 <= x(12,3,0) <= 1
 0 <= x(12,3,1) <= 1
 0 <= x(13,0,0) <= 1
 0 <= x(13,0,1) <= 1
 0 <= x(13,1,0) <= 1
 0 <= x(13,1,1) <= 1
 0 <= x(13,2,0) <= 1
 0 <= x(13,2,1) <= 1
 0 <= x(13,3,0) <= 1
 0 <= x(13,3,1) <= 1
 0 <= x(14,0,0) <= 1
 0 <= x(14,1,0) <= 1
 0 <= x(14,16,0) <= 1
 0 <= x(15,0,1) <= 1
 0 <= x(15,1,1) <= 1
 0 <= x(15,17,1) <= 1
 0 <= b(0) <= 24
 0 <= b(1) <= 24
 0 <= b(2) <= 24
 0 <= b(3) <= 24
 0 <= b(4) <= 24
 0 <= b(5) <= 24
 0 <= b(6) <= 24
 0 <= b(7) <= 24
 0 <= b(8) <= 24
 0 <= b(9) <= 24
 0 <= b(10) <= 24
 0 <= b(11) <= 24
 0 <= b(12) <= 24
 0 <= b(13) <= 24
 0 <= b(14) <= 24
 0 <= b(15) <= 24
 0 <= b(16) <= 24
 0 <= b(17) <= 24
Binaries
 x(0,1,0)  x(0,1,1)  x(0,2,0)  x(0,2,1)  x(0,3,0)  x(0,3,1)  x(0,4,0) 
 x(0,4,1)  x(0,5,0)  x(0,5,1)  x(0,6,0)  x(0,6,1)  x(0,7,0)  x(0,7,1) 
 x(0,8,0)  x(0,8,1)  x(0,9,0)  x(0,9,1)  x(0,10,0)  x(0,10,1)  x(0,11,0) 
 x(0,11,1)  x(0,12,0)  x(0,12,1)  x(0,13,0)  x(0,13,1)  x(1,3,0)  x(1,3,1) 
 x(1,4,0)  x(1,4,1)  x(1,5,0)  x(1,5,1)  x(1,6,0)  x(1,6,1)  x(1,7,0) 
 x(1,7,1)  x(1,8,0)  x(1,8,1)  x(1,9,0)  x(1,9,1)  x(1,10,0)  x(1,10,1) 
 x(1,11,0)  x(1,11,1)  x(1,12,0)  x(1,12,1)  x(1,13,0)  x(1,13,1)  x(2,1,0) 
 x(2,1,1)  x(2,3,0)  x(2,3,1)  x(2,4,0)  x(2,4,1)  x(2,5,0)  x(2,5,1) 
 x(2,6,0)  x(2,6,1)  x(2,7,0)  x(2,7,1)  x(2,8,0)  x(2,8,1)  x(2,9,0) 
 x(2,9,1)  x(2,10,0)  x(2,10,1)  x(2,11,0)  x(2,11,1)  x(2,12,0)  x(2,12,1) 
 x(2,13,0)  x(2,13,1)  x(2,16,0)  x(2,17,1)  x(3,4,0)  x(3,4,1)  x(3,5,0) 
 x(3,5,1)  x(3,6,0)  x(3,6,1)  x(3,7,0)  x(3,7,1)  x(3,8,0)  x(3,8,1) 
 x(3,9,0)  x(3,9,1)  x(3,10,0)  x(3,10,1)  x(3,11,0)  x(3,11,1)  x(3,12,0) 
 x(3,12,1)  x(3,13,0)  x(3,13,1)  x(3,16,0)  x(3,17,1)  x(4,0,0)  x(4,0,1) 
 x(4,1,0)  x(4,1,1)  x(4,2,0)  x(4,2,1)  x(4,3,0)  x(4,3,1)  x(5,0,0) 
 x(5,0,1)  x(5,1,0)  x(5,1,1)  x(5,2,0)  x(5,2,1)  x(5,3,0)  x(5,3,1) 
 x(6,0,0)  x(6,0,1)  x(6,1,0)  x(6,1,1)  x(6,2,0)  x(6,2,1)  x(6,3,0) 
 x(6,3,1)  x(7,0,0)  x(7,0,1)  x(7,1,0)  x(7,1,1)  x(7,2,0)  x(7,2,1) 
 x(7,3,0)  x(7,3,1)  x(8,0,0)  x(8,0,1)  x(8,1,0)  x(8,1,1)  x(8,2,0) 
 x(8,2,1)  x(8,3,0)  x(8,3,1)  x(9,0,0)  x(9,0,1)  x(9,1,0)  x(9,1,1) 
 x(9,2,0)  x(9,2,1)  x(9,3,0)  x(9,3,1)  x(10,0,0)  x(10,0,1)  x(10,1,0) 
 x(10,1,1)  x(10,2,0)  x(10,2,1)  x(10,3,0)  x(10,3,1)  x(11,0,0)  x(11,0,1) 
 x(11,1,0)  x(11,1,1)  x(11,2,0)  x(11,2,1)  x(11,3,0)  x(11,3,1)  x(12,0,0) 
 x(12,0,1)  x(12,1,0)  x(12,1,1)  x(12,2,0)  x(12,2,1)  x(12,3,0)  x(12,3,1) 
 x(13,0,0)  x(13,0,1)  x(13,1,0)  x(13,1,1)  x(13,2,0)  x(13,2,1)  x(13,3,0) 
 x(13,3,1)  x(14,0,0)  x(14,1,0)  x(14,16,0)  x(15,0,1)  x(15,1,1)  x(15,17,1) 
End
